\ENCODING=ISO-8859-1
\Problem name: LP/crossvalidation_paper/er_n=107_m=631_p=0.10_SET2_setparam=100.00_alpha=0.75_9

Maximize
 obj1: 100 x0 + 100 x1 + 100 x2 + 100 x3 + 100 x4 + 100 x5 + 100 x6 + 100 x7
       + 100 x8 + 100 x9 + 100 x10 + 100 x11 + 100 x12 + 100 x13 + 100 x14
       + 100 x15 + 100 x16 + 100 x17 + 100 x18 + 100 x19 + 100 x20 + 100 x21
       + 100 x22 + 100 x23 + 100 x24 + 100 x25 + 100 x26 + 100 x27 + 100 x28
       + 100 x29 + 100 x30 + 100 x31 + 100 x32 + 100 x33 + 100 x34 + 100 x35
       + 100 x36 + 100 x37 + 100 x38 + 100 x39 + 100 x40 + 100 x41 + 100 x42
       + 100 x43 + 100 x44 + 100 x45 + 100 x46 + 100 x47 + 100 x48 + 100 x49
       + 100 x50 + 100 x51 + 100 x52 + 100 x53 + 100 x54 + 100 x55 + 100 x56
       + 100 x57 + 100 x58 + 100 x59 + 100 x60 + 100 x61 + 100 x62 + 100 x63
       + 100 x64 + 100 x65 + 100 x66 + 100 x67 + 100 x68 + 100 x69 + 100 x70
       + 100 x71 + 100 x72 + 100 x73 + 100 x74 + 100 x75 + 100 x76 + 100 x77
       + 100 x78 + 100 x79 + 100 x80 + 100 x81 + 100 x82 + 100 x83 + 100 x84
       + 100 x85 + 100 x86 + 100 x87 + 100 x88 + 100 x89 + 100 x90 + 100 x91
       + 100 x92 + 100 x93 + 100 x94 + 100 x95 + 100 x96 + 100 x97 + 100 x98
       + 100 x99 + 100 x100 + 100 x101 + 100 x102 + 100 x103 + 100 x104
       + 100 x105 + 100 x106 - y35_88 - y32_54 - y5_31 - y54_58 - y8_63
       - y27_68 - y7_55 - y5_74 - y11_22 - y55_78 - y6_98 - y89_106 - y68_92
       - y16_106 - y58_65 - y34_85 - y43_98 - y53_62 - y10_85 - y48_77 - y29_37
       - y27_93 - y33_34 - y31_51 - y37_44 - y63_83 - y79_85 - y74_89 - y6_67
       - y90_95 - y17_57 - y88_105 - y49_51 - y35_96 - y8_94 - y20_47 - y96_104
       - y59_92 - y1_33 - y6_14 - y21_46 - y2_38 - y0_90 - y100_102 - y51_88
       - y54_64 - y43_45 - y64_86 - y65_88 - y76_78 - y47_99 - y0_5 - y33_105
       - y12_29 - y58_83 - y67_100 - y4_11 - y26_56 - y46_63 - y48_101 - y9_79
       - y59_85 - y2_33 - y93_96 - y54_91 - y10_48 - y24_99 - y55_85 - y6_87
       - y13_63 - y2_30 - y0_50 - y32_82 - y46_70 - y96_102 - y39_106 - y62_70
       - y21_26 - y15_84 - y73_80 - y52_70 - y17_44 - y18_43 - y45_59 - y23_99
       - y78_96 - y1_52 - y87_101 - y32_79 - y68_100 - y39_87 - y63_93 - y79_87
       - y25_101 - y6_65 - y53_87 - y17_63 - y47_100 - y10_22 - y17_81 - y3_13
       - y18_79 - y0_38 - y68_99 - y23_76 - y82_85 - y37_66 - y24_82 - y33_57
       - y39_76 - y2_94 - y49_80 - y5_68 - y58_81 - y32_93 - y14_93 - y46_61
       - y35_87 - y5_18 - y29_53 - y9_87 - y16_22 - y36_89 - y2_89 - y17_23
       - y13_35 - y5_77 - y6_85 - y65_73 - y76_93 - y7_75 - y0_30 - y68_75
       - y57_106 - y56_72 - y37_106 - y84_92 - y22_61 - y63_98 - y62_68
       - y27_34 - y86_94 - y49_104 - y31_40 - y73_86 - y37_47 - y38_44 - y67_78
       - y88_102 - y66_94 - y0_11 - y13_97 - y21_33 - y11_87 - y3_50 - y27_81
       - y4_53 - y51_87 - y16_48 - y38_57 - y51_99 - y28_103 - y5_99 - y12_98
       - y25_62 - y17_105 - y67_99 - y61_96 - y18_103 - y59_80 - y19_22
       - y35_80 - y9_44 - y29_84 - y26_86 - y40_52 - y72_84 - y54_68 - y11_56
       - y29_78 - y42_54 - y1_98 - y10_31 - y47_85 - y53_98 - y84_105 - y1_62
       - y23_71 - y39_105 - y4_29 - y22_56 - y3_32 - y23_61 - y25_83 - y39_71
       - y36_91 - y15_75 - y17_21 - y31_45 - y5_58 - y48_85 - y40_59 - y0_97
       - y7_52 - y14_30 - y89_95 - y8_106 - y21_104 - y20_74 - y55_79 - y56_74
       - y0_54 - y71_79 - y18_89 - y51_61 - y8_86 - y36_100 - y43_99 - y52_62
       - y81_87 - y45_105 - y99_100 - y13_64 - y33_35 - y81_105 - y36_40
       - y54_86 - y30_68 - y13_52 - y76_86 - y7_66 - y24_58 - y18_80 - y25_59
       - y8_93 - y35_71 - y26_48 - y61_101 - y36_73 - y7_12 - y100_101 - y9_41
       - y17_25 - y50_73 - y9_21 - y18_56 - y47_96 - y7_81 - y14_52 - y46_84
       - y23_82 - y58_82 - y48_100 - y70_75 - y4_16 - y34_64 - y62_94 - y39_72
       - y51_94 - y11_36 - y29_82 - y9_52 - y4_68 - y41_55 - y11_58 - y29_76
       - y27_100 - y39_55 - y29_102 - y7_78 - y12_27 - y69_70 - y19_59 - y34_97
       - y85_99 - y57_79 - y32_55 - y29_49 - y59_65 - y21_27 - y26_95 - y72_93
       - y34_47 - y78_87 - y13_57 - y44_87 - y0_8 - y39_96 - y87_106 - y84_88
       - y56_59 - y62_72 - y34_76 - y59_60 - y13_88 - y78_94 - y79_84 - y75_92
       - y19_99 - y20_83 - y48_51 - y45_53 - y10_105 - y21_89 - y22_89
       - y78_106 - y41_84 - y1_14 - y58_73 - y70_86 - y59_95 - y45_96 - y93_102
       - y49_101 - y22_34 - y62_85 - y39_77 - y7_36 - y26_75 - y40_49 - y3_71
       - y76_79 - y14_16 - y45_46 - y19_78 - y20_64 - y69_91 - y22_74 - y56_64
       - y26_57 - y0_60 - y23_74 - y43_105 - y32_50 - y97_100 - y98_106
       - y33_51 - y76_104 - y9_28 - y14_27 - y1_102 - y43_59 - y15_18 - y30_94
       - y19_87 - y58_91 - y21_85 - y0_51 - y24_48 - y10_79 - y25_45 - y0_41
       - y5_28 - y4_39 - y86_89 - y40_63 - y73_87 - y4_77 - y0_101 - y53_77
       - y88_101 - y69_77 - y44_81 - y7_95 - y14_46 - y90_103 - y25_54
       - y63_104 - y9_66 - y21_34 - y59_62 - y77_104 - y17_36 - y9_14 - y40_82
       - y47_103 - y54_102 - y1_106 - y51_96 - y31_96 - y44_72 - y83_95
       - y18_76 - y69_80 - y21_65 - y5_14 - y27_49 - y6_13 - y19_23 - y11_77
       - y39_79 - y8_54 - y27_77 - y16_54 - y17_55 - y41_50 - y31_67 - y77_85
       - y8_98 - y56_92 - y43_85 - y20_49 - y18_97 - y27_54 - y52_54 - y61_84
       - y15_72 - y24_102 - y55_86 - y6_74 - y3_84 - y12_57 - y38_42 - y52_96
       - y56_99 - y76_94 - y47_83 - y1_30 - y16_82 - y37_105 - y52_61 - y14_79
       - y25_85 - y21_39 - y4_33 - y36_65 - y99_101 - y0_65 - y29_39 - y10_38
       - y34_43 - y17_33 - y7_50 - y4_85 - y20_80 - y7_67 - y41_77 - y42_69
       - y12_14 - y88_103 - y16_73 - y50_58 - y68_89 - y80_83 - y26_51 - y62_76
       - y71_99 - y93_105 - y8_43 - y12_88 - y24_78 - y33_37 - y6_68 - y40_78
       - y24_26 - y55_66 - y3_104 - y56_87 - y32_99 - y83_97 - y12_99 - y57_93
       - y8_67 - y4_9 - y23_73 - y12_87 - y27_41 - y6_37 - y39_73 - y82_106
       - y101_105 - y2_93 - y79_89 - y10_50 - y53_71 - y85_100 - y15_37
       - y21_50
Subject To
 c1:   x0 + x5 - y0_5 <= 1
 c2:   x0 + x8 - y0_8 <= 1
 c3:   x0 + x11 - y0_11 <= 1
 c4:   x0 + x30 - y0_30 <= 1
 c5:   x0 + x38 - y0_38 <= 1
 c6:   x0 + x41 - y0_41 <= 1
 c7:   x0 + x50 - y0_50 <= 1
 c8:   x0 + x51 - y0_51 <= 1
 c9:   x0 + x53 <= 1
 c10:  x0 + x54 - y0_54 <= 1
 c11:  x0 + x60 - y0_60 <= 1
 c12:  x0 + x65 - y0_65 <= 1
 c13:  x0 + x77 <= 1
 c14:  x0 + x82 <= 1
 c15:  x0 + x90 - y0_90 <= 1
 c16:  x0 + x97 - y0_97 <= 1
 c17:  x0 + x101 - y0_101 <= 1
 c18:  x1 + x14 - y1_14 <= 1
 c19:  x1 + x20 <= 1
 c20:  x1 + x21 <= 1
 c21:  x1 + x30 - y1_30 <= 1
 c22:  x1 + x33 - y1_33 <= 1
 c23:  x1 + x44 <= 1
 c24:  x1 + x45 <= 1
 c25:  x1 + x49 <= 1
 c26:  x1 + x52 - y1_52 <= 1
 c27:  x1 + x62 - y1_62 <= 1
 c28:  x1 + x69 <= 1
 c29:  x1 + x80 <= 1
 c30:  x1 + x89 <= 1
 c31:  x1 + x94 <= 1
 c32:  x1 + x98 - y1_98 <= 1
 c33:  x1 + x102 - y1_102 <= 1
 c34:  x1 + x106 - y1_106 <= 1
 c35:  x2 + x30 - y2_30 <= 1
 c36:  x2 + x33 - y2_33 <= 1
 c37:  x2 + x38 - y2_38 <= 1
 c38:  x2 + x49 <= 1
 c39:  x2 + x82 <= 1
 c40:  x2 + x89 - y2_89 <= 1
 c41:  x2 + x93 - y2_93 <= 1
 c42:  x2 + x94 - y2_94 <= 1
 c43:  x2 + x96 <= 1
 c44:  x2 + x99 <= 1
 c45:  x3 + x13 - y3_13 <= 1
 c46:  x3 + x15 <= 1
 c47:  x3 + x32 - y3_32 <= 1
 c48:  x3 + x36 <= 1
 c49:  x3 + x50 - y3_50 <= 1
 c50:  x3 + x59 <= 1
 c51:  x3 + x71 - y3_71 <= 1
 c52:  x3 + x79 <= 1
 c53:  x3 + x84 - y3_84 <= 1
 c54:  x3 + x104 - y3_104 <= 1
 c55:  x4 + x9 - y4_9 <= 1
 c56:  x4 + x11 - y4_11 <= 1
 c57:  x4 + x16 - y4_16 <= 1
 c58:  x4 + x29 - y4_29 <= 1
 c59:  x4 + x32 <= 1
 c60:  x4 + x33 - y4_33 <= 1
 c61:  x4 + x39 - y4_39 <= 1
 c62:  x4 + x43 <= 1
 c63:  x4 + x53 - y4_53 <= 1
 c64:  x4 + x68 - y4_68 <= 1
 c65:  x4 + x77 - y4_77 <= 1
 c66:  x4 + x85 - y4_85 <= 1
 c67:  x4 + x87 <= 1
 c68:  x5 + x14 - y5_14 <= 1
 c69:  x5 + x18 - y5_18 <= 1
 c70:  x5 + x28 - y5_28 <= 1
 c71:  x5 + x31 - y5_31 <= 1
 c72:  x5 + x36 <= 1
 c73:  x5 + x58 - y5_58 <= 1
 c74:  x5 + x63 <= 1
 c75:  x5 + x68 - y5_68 <= 1
 c76:  x5 + x74 - y5_74 <= 1
 c77:  x5 + x77 - y5_77 <= 1
 c78:  x5 + x79 <= 1
 c79:  x5 + x99 - y5_99 <= 1
 c80:  x6 + x13 - y6_13 <= 1
 c81:  x6 + x14 - y6_14 <= 1
 c82:  x6 + x26 <= 1
 c83:  x6 + x37 - y6_37 <= 1
 c84:  x6 + x55 <= 1
 c85:  x6 + x65 - y6_65 <= 1
 c86:  x6 + x67 - y6_67 <= 1
 c87:  x6 + x68 - y6_68 <= 1
 c88:  x6 + x70 <= 1
 c89:  x6 + x74 - y6_74 <= 1
 c90:  x6 + x85 - y6_85 <= 1
 c91:  x6 + x87 - y6_87 <= 1
 c92:  x6 + x98 - y6_98 <= 1
 c93:  x7 + x12 - y7_12 <= 1
 c94:  x7 + x36 - y7_36 <= 1
 c95:  x7 + x50 - y7_50 <= 1
 c96:  x7 + x51 <= 1
 c97:  x7 + x52 - y7_52 <= 1
 c98:  x7 + x55 - y7_55 <= 1
 c99:  x7 + x66 - y7_66 <= 1
 c100: x7 + x67 - y7_67 <= 1
 c101: x7 + x75 - y7_75 <= 1
 c102: x7 + x78 - y7_78 <= 1
 c103: x7 + x81 - y7_81 <= 1
 c104: x7 + x95 - y7_95 <= 1
 c105: x8 + x26 <= 1
 c106: x8 + x43 - y8_43 <= 1
 c107: x8 + x54 - y8_54 <= 1
 c108: x8 + x63 - y8_63 <= 1
 c109: x8 + x67 - y8_67 <= 1
 c110: x8 + x72 <= 1
 c111: x8 + x86 - y8_86 <= 1
 c112: x8 + x92 <= 1
 c113: x8 + x93 - y8_93 <= 1
 c114: x8 + x94 - y8_94 <= 1
 c115: x8 + x98 - y8_98 <= 1
 c116: x8 + x106 - y8_106 <= 1
 c117: x9 + x10 <= 1
 c118: x9 + x14 - y9_14 <= 1
 c119: x9 + x18 <= 1
 c120: x9 + x20 <= 1
 c121: x9 + x21 - y9_21 <= 1
 c122: x9 + x28 - y9_28 <= 1
 c123: x9 + x41 - y9_41 <= 1
 c124: x9 + x44 - y9_44 <= 1
 c125: x9 + x52 - y9_52 <= 1
 c126: x9 + x66 - y9_66 <= 1
 c127: x9 + x68 <= 1
 c128: x9 + x79 - y9_79 <= 1
 c129: x9 + x87 - y9_87 <= 1
 c130: x10 + x11 <= 1
 c131: x10 + x22 - y10_22 <= 1
 c132: x10 + x31 - y10_31 <= 1
 c133: x10 + x38 - y10_38 <= 1
 c134: x10 + x47 <= 1
 c135: x10 + x48 - y10_48 <= 1
 c136: x10 + x50 - y10_50 <= 1
 c137: x10 + x79 - y10_79 <= 1
 c138: x10 + x85 - y10_85 <= 1
 c139: x10 + x105 - y10_105 <= 1
 c140: x11 + x22 - y11_22 <= 1
 c141: x11 + x26 <= 1
 c142: x11 + x36 - y11_36 <= 1
 c143: x11 + x43 <= 1
 c144: x11 + x56 - y11_56 <= 1
 c145: x11 + x58 - y11_58 <= 1
 c146: x11 + x77 - y11_77 <= 1
 c147: x11 + x87 - y11_87 <= 1
 c148: x12 + x14 - y12_14 <= 1
 c149: x12 + x20 <= 1
 c150: x12 + x27 - y12_27 <= 1
 c151: x12 + x29 - y12_29 <= 1
 c152: x12 + x34 <= 1
 c153: x12 + x35 <= 1
 c154: x12 + x57 - y12_57 <= 1
 c155: x12 + x66 <= 1
 c156: x12 + x83 <= 1
 c157: x12 + x87 - y12_87 <= 1
 c158: x12 + x88 - y12_88 <= 1
 c159: x12 + x98 - y12_98 <= 1
 c160: x12 + x99 - y12_99 <= 1
 c161: x13 + x35 - y13_35 <= 1
 c162: x13 + x52 - y13_52 <= 1
 c163: x13 + x57 - y13_57 <= 1
 c164: x13 + x63 - y13_63 <= 1
 c165: x13 + x64 - y13_64 <= 1
 c166: x13 + x88 - y13_88 <= 1
 c167: x13 + x97 - y13_97 <= 1
 c168: x14 + x16 - y14_16 <= 1
 c169: x14 + x27 - y14_27 <= 1
 c170: x14 + x30 - y14_30 <= 1
 c171: x14 + x46 - y14_46 <= 1
 c172: x14 + x52 - y14_52 <= 1
 c173: x14 + x58 <= 1
 c174: x14 + x69 <= 1
 c175: x14 + x79 - y14_79 <= 1
 c176: x14 + x87 <= 1
 c177: x14 + x93 - y14_93 <= 1
 c178: x15 + x18 - y15_18 <= 1
 c179: x15 + x37 - y15_37 <= 1
 c180: x15 + x72 - y15_72 <= 1
 c181: x15 + x75 - y15_75 <= 1
 c182: x15 + x84 - y15_84 <= 1
 c183: x15 + x99 <= 1
 c184: x16 + x22 - y16_22 <= 1
 c185: x16 + x48 - y16_48 <= 1
 c186: x16 + x54 - y16_54 <= 1
 c187: x16 + x73 - y16_73 <= 1
 c188: x16 + x82 - y16_82 <= 1
 c189: x16 + x106 - y16_106 <= 1
 c190: x17 + x20 <= 1
 c191: x17 + x21 - y17_21 <= 1
 c192: x17 + x23 - y17_23 <= 1
 c193: x17 + x25 - y17_25 <= 1
 c194: x17 + x33 - y17_33 <= 1
 c195: x17 + x36 - y17_36 <= 1
 c196: x17 + x44 - y17_44 <= 1
 c197: x17 + x55 - y17_55 <= 1
 c198: x17 + x57 - y17_57 <= 1
 c199: x17 + x63 - y17_63 <= 1
 c200: x17 + x81 - y17_81 <= 1
 c201: x17 + x89 <= 1
 c202: x17 + x105 - y17_105 <= 1
 c203: x18 + x43 - y18_43 <= 1
 c204: x18 + x56 - y18_56 <= 1
 c205: x18 + x76 - y18_76 <= 1
 c206: x18 + x79 - y18_79 <= 1
 c207: x18 + x80 - y18_80 <= 1
 c208: x18 + x89 - y18_89 <= 1
 c209: x18 + x97 - y18_97 <= 1
 c210: x18 + x103 - y18_103 <= 1
 c211: x19 + x22 - y19_22 <= 1
 c212: x19 + x23 - y19_23 <= 1
 c213: x19 + x59 - y19_59 <= 1
 c214: x19 + x78 - y19_78 <= 1
 c215: x19 + x87 - y19_87 <= 1
 c216: x19 + x99 - y19_99 <= 1
 c217: x19 + x104 <= 1
 c218: x20 + x47 - y20_47 <= 1
 c219: x20 + x49 - y20_49 <= 1
 c220: x20 + x64 - y20_64 <= 1
 c221: x20 + x67 <= 1
 c222: x20 + x74 - y20_74 <= 1
 c223: x20 + x80 - y20_80 <= 1
 c224: x20 + x83 - y20_83 <= 1
 c225: x21 + x26 - y21_26 <= 1
 c226: x21 + x27 - y21_27 <= 1
 c227: x21 + x33 - y21_33 <= 1
 c228: x21 + x34 - y21_34 <= 1
 c229: x21 + x39 - y21_39 <= 1
 c230: x21 + x46 - y21_46 <= 1
 c231: x21 + x48 <= 1
 c232: x21 + x50 - y21_50 <= 1
 c233: x21 + x65 - y21_65 <= 1
 c234: x21 + x74 <= 1
 c235: x21 + x85 - y21_85 <= 1
 c236: x21 + x89 - y21_89 <= 1
 c237: x21 + x104 - y21_104 <= 1
 c238: x22 + x34 - y22_34 <= 1
 c239: x22 + x37 <= 1
 c240: x22 + x56 - y22_56 <= 1
 c241: x22 + x61 - y22_61 <= 1
 c242: x22 + x63 <= 1
 c243: x22 + x74 - y22_74 <= 1
 c244: x22 + x89 - y22_89 <= 1
 c245: x22 + x99 <= 1
 c246: x23 + x61 - y23_61 <= 1
 c247: x23 + x71 - y23_71 <= 1
 c248: x23 + x73 - y23_73 <= 1
 c249: x23 + x74 - y23_74 <= 1
 c250: x23 + x76 - y23_76 <= 1
 c251: x23 + x82 - y23_82 <= 1
 c252: x23 + x87 <= 1
 c253: x23 + x99 - y23_99 <= 1
 c254: x24 + x26 - y24_26 <= 1
 c255: x24 + x40 <= 1
 c256: x24 + x48 - y24_48 <= 1
 c257: x24 + x54 <= 1
 c258: x24 + x58 - y24_58 <= 1
 c259: x24 + x78 - y24_78 <= 1
 c260: x24 + x82 - y24_82 <= 1
 c261: x24 + x99 - y24_99 <= 1
 c262: x24 + x102 - y24_102 <= 1
 c263: x25 + x26 <= 1
 c264: x25 + x39 <= 1
 c265: x25 + x45 - y25_45 <= 1
 c266: x25 + x54 - y25_54 <= 1
 c267: x25 + x59 - y25_59 <= 1
 c268: x25 + x62 - y25_62 <= 1
 c269: x25 + x71 <= 1
 c270: x25 + x83 - y25_83 <= 1
 c271: x25 + x85 - y25_85 <= 1
 c272: x25 + x101 - y25_101 <= 1
 c273: x26 + x48 - y26_48 <= 1
 c274: x26 + x51 - y26_51 <= 1
 c275: x26 + x56 - y26_56 <= 1
 c276: x26 + x57 - y26_57 <= 1
 c277: x26 + x75 - y26_75 <= 1
 c278: x26 + x86 - y26_86 <= 1
 c279: x26 + x93 <= 1
 c280: x26 + x94 <= 1
 c281: x26 + x95 - y26_95 <= 1
 c282: x26 + x96 <= 1
 c283: x26 + x106 <= 1
 c284: x27 + x34 - y27_34 <= 1
 c285: x27 + x35 <= 1
 c286: x27 + x41 - y27_41 <= 1
 c287: x27 + x49 - y27_49 <= 1
 c288: x27 + x54 - y27_54 <= 1
 c289: x27 + x56 <= 1
 c290: x27 + x68 - y27_68 <= 1
 c291: x27 + x77 - y27_77 <= 1
 c292: x27 + x81 - y27_81 <= 1
 c293: x27 + x93 - y27_93 <= 1
 c294: x27 + x100 - y27_100 <= 1
 c295: x28 + x47 <= 1
 c296: x28 + x81 <= 1
 c297: x28 + x103 - y28_103 <= 1
 c298: x29 + x37 - y29_37 <= 1
 c299: x29 + x39 - y29_39 <= 1
 c300: x29 + x41 <= 1
 c301: x29 + x49 - y29_49 <= 1
 c302: x29 + x53 - y29_53 <= 1
 c303: x29 + x67 <= 1
 c304: x29 + x76 - y29_76 <= 1
 c305: x29 + x78 - y29_78 <= 1
 c306: x29 + x82 - y29_82 <= 1
 c307: x29 + x84 - y29_84 <= 1
 c308: x29 + x102 - y29_102 <= 1
 c309: x29 + x104 <= 1
 c310: x30 + x68 - y30_68 <= 1
 c311: x30 + x81 <= 1
 c312: x30 + x94 - y30_94 <= 1
 c313: x31 + x40 - y31_40 <= 1
 c314: x31 + x44 <= 1
 c315: x31 + x45 - y31_45 <= 1
 c316: x31 + x51 - y31_51 <= 1
 c317: x31 + x57 <= 1
 c318: x31 + x67 - y31_67 <= 1
 c319: x31 + x77 <= 1
 c320: x31 + x96 - y31_96 <= 1
 c321: x31 + x102 <= 1
 c322: x31 + x105 <= 1
 c323: x32 + x50 - y32_50 <= 1
 c324: x32 + x54 - y32_54 <= 1
 c325: x32 + x55 - y32_55 <= 1
 c326: x32 + x69 <= 1
 c327: x32 + x79 - y32_79 <= 1
 c328: x32 + x82 - y32_82 <= 1
 c329: x32 + x85 <= 1
 c330: x32 + x93 - y32_93 <= 1
 c331: x32 + x95 <= 1
 c332: x32 + x99 - y32_99 <= 1
 c333: x33 + x34 - y33_34 <= 1
 c334: x33 + x35 - y33_35 <= 1
 c335: x33 + x37 - y33_37 <= 1
 c336: x33 + x39 <= 1
 c337: x33 + x51 - y33_51 <= 1
 c338: x33 + x57 - y33_57 <= 1
 c339: x33 + x105 - y33_105 <= 1
 c340: x34 + x43 - y34_43 <= 1
 c341: x34 + x47 - y34_47 <= 1
 c342: x34 + x64 - y34_64 <= 1
 c343: x34 + x76 - y34_76 <= 1
 c344: x34 + x85 - y34_85 <= 1
 c345: x34 + x97 - y34_97 <= 1
 c346: x35 + x48 <= 1
 c347: x35 + x54 <= 1
 c348: x35 + x71 - y35_71 <= 1
 c349: x35 + x80 - y35_80 <= 1
 c350: x35 + x87 - y35_87 <= 1
 c351: x35 + x88 - y35_88 <= 1
 c352: x35 + x96 - y35_96 <= 1
 c353: x36 + x40 - y36_40 <= 1
 c354: x36 + x64 <= 1
 c355: x36 + x65 - y36_65 <= 1
 c356: x36 + x73 - y36_73 <= 1
 c357: x36 + x89 - y36_89 <= 1
 c358: x36 + x91 - y36_91 <= 1
 c359: x36 + x94 <= 1
 c360: x36 + x100 - y36_100 <= 1
 c361: x37 + x44 - y37_44 <= 1
 c362: x37 + x47 - y37_47 <= 1
 c363: x37 + x56 <= 1
 c364: x37 + x65 <= 1
 c365: x37 + x66 - y37_66 <= 1
 c366: x37 + x105 - y37_105 <= 1
 c367: x37 + x106 - y37_106 <= 1
 c368: x38 + x42 - y38_42 <= 1
 c369: x38 + x44 - y38_44 <= 1
 c370: x38 + x57 - y38_57 <= 1
 c371: x38 + x71 <= 1
 c372: x39 + x55 - y39_55 <= 1
 c373: x39 + x71 - y39_71 <= 1
 c374: x39 + x72 - y39_72 <= 1
 c375: x39 + x73 - y39_73 <= 1
 c376: x39 + x74 <= 1
 c377: x39 + x76 - y39_76 <= 1
 c378: x39 + x77 - y39_77 <= 1
 c379: x39 + x79 - y39_79 <= 1
 c380: x39 + x87 - y39_87 <= 1
 c381: x39 + x92 <= 1
 c382: x39 + x96 - y39_96 <= 1
 c383: x39 + x105 - y39_105 <= 1
 c384: x39 + x106 - y39_106 <= 1
 c385: x40 + x44 <= 1
 c386: x40 + x49 - y40_49 <= 1
 c387: x40 + x52 - y40_52 <= 1
 c388: x40 + x59 - y40_59 <= 1
 c389: x40 + x63 - y40_63 <= 1
 c390: x40 + x78 - y40_78 <= 1
 c391: x40 + x82 - y40_82 <= 1
 c392: x40 + x83 <= 1
 c393: x41 + x50 - y41_50 <= 1
 c394: x41 + x55 - y41_55 <= 1
 c395: x41 + x77 - y41_77 <= 1
 c396: x41 + x84 - y41_84 <= 1
 c397: x41 + x86 <= 1
 c398: x41 + x97 <= 1
 c399: x42 + x54 - y42_54 <= 1
 c400: x42 + x69 - y42_69 <= 1
 c401: x42 + x72 <= 1
 c402: x42 + x80 <= 1
 c403: x43 + x45 - y43_45 <= 1
 c404: x43 + x46 <= 1
 c405: x43 + x57 <= 1
 c406: x43 + x59 - y43_59 <= 1
 c407: x43 + x70 <= 1
 c408: x43 + x85 - y43_85 <= 1
 c409: x43 + x97 <= 1
 c410: x43 + x98 - y43_98 <= 1
 c411: x43 + x99 - y43_99 <= 1
 c412: x43 + x105 - y43_105 <= 1
 c413: x44 + x64 <= 1
 c414: x44 + x72 - y44_72 <= 1
 c415: x44 + x81 - y44_81 <= 1
 c416: x44 + x87 - y44_87 <= 1
 c417: x45 + x46 - y45_46 <= 1
 c418: x45 + x53 - y45_53 <= 1
 c419: x45 + x59 - y45_59 <= 1
 c420: x45 + x82 <= 1
 c421: x45 + x87 <= 1
 c422: x45 + x96 - y45_96 <= 1
 c423: x45 + x98 <= 1
 c424: x45 + x105 - y45_105 <= 1
 c425: x46 + x61 - y46_61 <= 1
 c426: x46 + x63 - y46_63 <= 1
 c427: x46 + x68 <= 1
 c428: x46 + x70 - y46_70 <= 1
 c429: x46 + x74 <= 1
 c430: x46 + x84 - y46_84 <= 1
 c431: x47 + x83 - y47_83 <= 1
 c432: x47 + x85 - y47_85 <= 1
 c433: x47 + x96 - y47_96 <= 1
 c434: x47 + x99 - y47_99 <= 1
 c435: x47 + x100 - y47_100 <= 1
 c436: x47 + x103 - y47_103 <= 1
 c437: x48 + x51 - y48_51 <= 1
 c438: x48 + x62 <= 1
 c439: x48 + x77 - y48_77 <= 1
 c440: x48 + x85 - y48_85 <= 1
 c441: x48 + x100 - y48_100 <= 1
 c442: x48 + x101 - y48_101 <= 1
 c443: x49 + x51 - y49_51 <= 1
 c444: x49 + x77 <= 1
 c445: x49 + x80 - y49_80 <= 1
 c446: x49 + x101 - y49_101 <= 1
 c447: x49 + x104 - y49_104 <= 1
 c448: x49 + x105 <= 1
 c449: x50 + x58 - y50_58 <= 1
 c450: x50 + x73 - y50_73 <= 1
 c451: x50 + x82 <= 1
 c452: x51 + x60 <= 1
 c453: x51 + x61 - y51_61 <= 1
 c454: x51 + x87 - y51_87 <= 1
 c455: x51 + x88 - y51_88 <= 1
 c456: x51 + x94 - y51_94 <= 1
 c457: x51 + x96 - y51_96 <= 1
 c458: x51 + x99 - y51_99 <= 1
 c459: x52 + x54 - y52_54 <= 1
 c460: x52 + x61 - y52_61 <= 1
 c461: x52 + x62 - y52_62 <= 1
 c462: x52 + x70 - y52_70 <= 1
 c463: x52 + x96 - y52_96 <= 1
 c464: x53 + x62 - y53_62 <= 1
 c465: x53 + x71 - y53_71 <= 1
 c466: x53 + x77 - y53_77 <= 1
 c467: x53 + x87 - y53_87 <= 1
 c468: x53 + x98 - y53_98 <= 1
 c469: x54 + x58 - y54_58 <= 1
 c470: x54 + x64 - y54_64 <= 1
 c471: x54 + x68 - y54_68 <= 1
 c472: x54 + x81 <= 1
 c473: x54 + x86 - y54_86 <= 1
 c474: x54 + x88 <= 1
 c475: x54 + x91 - y54_91 <= 1
 c476: x54 + x102 - y54_102 <= 1
 c477: x55 + x66 - y55_66 <= 1
 c478: x55 + x78 - y55_78 <= 1
 c479: x55 + x79 - y55_79 <= 1
 c480: x55 + x85 - y55_85 <= 1
 c481: x55 + x86 - y55_86 <= 1
 c482: x55 + x98 <= 1
 c483: x55 + x102 <= 1
 c484: x56 + x59 - y56_59 <= 1
 c485: x56 + x64 - y56_64 <= 1
 c486: x56 + x72 - y56_72 <= 1
 c487: x56 + x74 - y56_74 <= 1
 c488: x56 + x87 - y56_87 <= 1
 c489: x56 + x92 - y56_92 <= 1
 c490: x56 + x99 - y56_99 <= 1
 c491: x57 + x79 - y57_79 <= 1
 c492: x57 + x93 - y57_93 <= 1
 c493: x57 + x106 - y57_106 <= 1
 c494: x58 + x65 - y58_65 <= 1
 c495: x58 + x73 - y58_73 <= 1
 c496: x58 + x76 <= 1
 c497: x58 + x81 - y58_81 <= 1
 c498: x58 + x82 - y58_82 <= 1
 c499: x58 + x83 - y58_83 <= 1
 c500: x58 + x91 - y58_91 <= 1
 c501: x59 + x60 - y59_60 <= 1
 c502: x59 + x62 - y59_62 <= 1
 c503: x59 + x65 - y59_65 <= 1
 c504: x59 + x80 - y59_80 <= 1
 c505: x59 + x85 - y59_85 <= 1
 c506: x59 + x92 - y59_92 <= 1
 c507: x59 + x95 - y59_95 <= 1
 c508: x60 + x82 <= 1
 c509: x61 + x72 <= 1
 c510: x61 + x84 - y61_84 <= 1
 c511: x61 + x96 - y61_96 <= 1
 c512: x61 + x101 - y61_101 <= 1
 c513: x62 + x67 <= 1
 c514: x62 + x68 - y62_68 <= 1
 c515: x62 + x70 - y62_70 <= 1
 c516: x62 + x72 - y62_72 <= 1
 c517: x62 + x76 - y62_76 <= 1
 c518: x62 + x85 - y62_85 <= 1
 c519: x62 + x93 <= 1
 c520: x62 + x94 - y62_94 <= 1
 c521: x62 + x106 <= 1
 c522: x63 + x72 <= 1
 c523: x63 + x83 - y63_83 <= 1
 c524: x63 + x91 <= 1
 c525: x63 + x93 - y63_93 <= 1
 c526: x63 + x98 - y63_98 <= 1
 c527: x63 + x104 - y63_104 <= 1
 c528: x64 + x75 <= 1
 c529: x64 + x86 - y64_86 <= 1
 c530: x64 + x93 <= 1
 c531: x64 + x102 <= 1
 c532: x65 + x73 - y65_73 <= 1
 c533: x65 + x75 <= 1
 c534: x65 + x88 - y65_88 <= 1
 c535: x65 + x91 <= 1
 c536: x66 + x94 - y66_94 <= 1
 c537: x67 + x76 <= 1
 c538: x67 + x78 - y67_78 <= 1
 c539: x67 + x99 - y67_99 <= 1
 c540: x67 + x100 - y67_100 <= 1
 c541: x68 + x75 - y68_75 <= 1
 c542: x68 + x89 - y68_89 <= 1
 c543: x68 + x92 - y68_92 <= 1
 c544: x68 + x99 - y68_99 <= 1
 c545: x68 + x100 - y68_100 <= 1
 c546: x68 + x104 <= 1
 c547: x69 + x70 - y69_70 <= 1
 c548: x69 + x77 - y69_77 <= 1
 c549: x69 + x80 - y69_80 <= 1
 c550: x69 + x91 - y69_91 <= 1
 c551: x70 + x74 <= 1
 c552: x70 + x75 - y70_75 <= 1
 c553: x70 + x86 - y70_86 <= 1
 c554: x70 + x93 <= 1
 c555: x70 + x94 <= 1
 c556: x70 + x104 <= 1
 c557: x71 + x79 - y71_79 <= 1
 c558: x71 + x99 - y71_99 <= 1
 c559: x72 + x84 - y72_84 <= 1
 c560: x72 + x93 - y72_93 <= 1
 c561: x73 + x80 - y73_80 <= 1
 c562: x73 + x86 - y73_86 <= 1
 c563: x73 + x87 - y73_87 <= 1
 c564: x73 + x91 <= 1
 c565: x73 + x104 <= 1
 c566: x74 + x89 - y74_89 <= 1
 c567: x75 + x92 - y75_92 <= 1
 c568: x76 + x78 - y76_78 <= 1
 c569: x76 + x79 - y76_79 <= 1
 c570: x76 + x86 - y76_86 <= 1
 c571: x76 + x93 - y76_93 <= 1
 c572: x76 + x94 - y76_94 <= 1
 c573: x76 + x104 - y76_104 <= 1
 c574: x77 + x85 - y77_85 <= 1
 c575: x77 + x104 - y77_104 <= 1
 c576: x78 + x87 - y78_87 <= 1
 c577: x78 + x94 - y78_94 <= 1
 c578: x78 + x95 <= 1
 c579: x78 + x96 - y78_96 <= 1
 c580: x78 + x106 - y78_106 <= 1
 c581: x79 + x84 - y79_84 <= 1
 c582: x79 + x85 - y79_85 <= 1
 c583: x79 + x87 - y79_87 <= 1
 c584: x79 + x89 - y79_89 <= 1
 c585: x80 + x81 <= 1
 c586: x80 + x83 - y80_83 <= 1
 c587: x80 + x90 <= 1
 c588: x80 + x91 <= 1
 c589: x81 + x87 - y81_87 <= 1
 c590: x81 + x105 - y81_105 <= 1
 c591: x82 + x84 <= 1
 c592: x82 + x85 - y82_85 <= 1
 c593: x82 + x99 <= 1
 c594: x82 + x106 - y82_106 <= 1
 c595: x83 + x87 <= 1
 c596: x83 + x95 - y83_95 <= 1
 c597: x83 + x97 - y83_97 <= 1
 c598: x84 + x88 - y84_88 <= 1
 c599: x84 + x92 - y84_92 <= 1
 c600: x84 + x105 - y84_105 <= 1
 c601: x85 + x99 - y85_99 <= 1
 c602: x85 + x100 - y85_100 <= 1
 c603: x86 + x89 - y86_89 <= 1
 c604: x86 + x94 - y86_94 <= 1
 c605: x86 + x96 <= 1
 c606: x87 + x101 - y87_101 <= 1
 c607: x87 + x106 - y87_106 <= 1
 c608: x88 + x101 - y88_101 <= 1
 c609: x88 + x102 - y88_102 <= 1
 c610: x88 + x103 - y88_103 <= 1
 c611: x88 + x105 - y88_105 <= 1
 c612: x89 + x95 - y89_95 <= 1
 c613: x89 + x96 <= 1
 c614: x89 + x106 - y89_106 <= 1
 c615: x90 + x95 - y90_95 <= 1
 c616: x90 + x103 - y90_103 <= 1
 c617: x93 + x96 - y93_96 <= 1
 c618: x93 + x102 - y93_102 <= 1
 c619: x93 + x105 - y93_105 <= 1
 c620: x96 + x102 - y96_102 <= 1
 c621: x96 + x103 <= 1
 c622: x96 + x104 - y96_104 <= 1
 c623: x97 + x100 - y97_100 <= 1
 c624: x97 + x106 <= 1
 c625: x98 + x106 - y98_106 <= 1
 c626: x99 + x100 - y99_100 <= 1
 c627: x99 + x101 - y99_101 <= 1
 c628: x100 + x101 - y100_101 <= 1
 c629: x100 + x102 - y100_102 <= 1
 c630: x101 + x105 - y101_105 <= 1
 c631: x101 + x106 <= 1
Bounds
 0 <= x0 <= 1
 0 <= x1 <= 1
 0 <= x2 <= 1
 0 <= x3 <= 1
 0 <= x4 <= 1
 0 <= x5 <= 1
 0 <= x6 <= 1
 0 <= x7 <= 1
 0 <= x8 <= 1
 0 <= x9 <= 1
 0 <= x10 <= 1
 0 <= x11 <= 1
 0 <= x12 <= 1
 0 <= x13 <= 1
 0 <= x14 <= 1
 0 <= x15 <= 1
 0 <= x16 <= 1
 0 <= x17 <= 1
 0 <= x18 <= 1
 0 <= x19 <= 1
 0 <= x20 <= 1
 0 <= x21 <= 1
 0 <= x22 <= 1
 0 <= x23 <= 1
 0 <= x24 <= 1
 0 <= x25 <= 1
 0 <= x26 <= 1
 0 <= x27 <= 1
 0 <= x28 <= 1
 0 <= x29 <= 1
 0 <= x30 <= 1
 0 <= x31 <= 1
 0 <= x32 <= 1
 0 <= x33 <= 1
 0 <= x34 <= 1
 0 <= x35 <= 1
 0 <= x36 <= 1
 0 <= x37 <= 1
 0 <= x38 <= 1
 0 <= x39 <= 1
 0 <= x40 <= 1
 0 <= x41 <= 1
 0 <= x42 <= 1
 0 <= x43 <= 1
 0 <= x44 <= 1
 0 <= x45 <= 1
 0 <= x46 <= 1
 0 <= x47 <= 1
 0 <= x48 <= 1
 0 <= x49 <= 1
 0 <= x50 <= 1
 0 <= x51 <= 1
 0 <= x52 <= 1
 0 <= x53 <= 1
 0 <= x54 <= 1
 0 <= x55 <= 1
 0 <= x56 <= 1
 0 <= x57 <= 1
 0 <= x58 <= 1
 0 <= x59 <= 1
 0 <= x60 <= 1
 0 <= x61 <= 1
 0 <= x62 <= 1
 0 <= x63 <= 1
 0 <= x64 <= 1
 0 <= x65 <= 1
 0 <= x66 <= 1
 0 <= x67 <= 1
 0 <= x68 <= 1
 0 <= x69 <= 1
 0 <= x70 <= 1
 0 <= x71 <= 1
 0 <= x72 <= 1
 0 <= x73 <= 1
 0 <= x74 <= 1
 0 <= x75 <= 1
 0 <= x76 <= 1
 0 <= x77 <= 1
 0 <= x78 <= 1
 0 <= x79 <= 1
 0 <= x80 <= 1
 0 <= x81 <= 1
 0 <= x82 <= 1
 0 <= x83 <= 1
 0 <= x84 <= 1
 0 <= x85 <= 1
 0 <= x86 <= 1
 0 <= x87 <= 1
 0 <= x88 <= 1
 0 <= x89 <= 1
 0 <= x90 <= 1
 0 <= x91 <= 1
 0 <= x92 <= 1
 0 <= x93 <= 1
 0 <= x94 <= 1
 0 <= x95 <= 1
 0 <= x96 <= 1
 0 <= x97 <= 1
 0 <= x98 <= 1
 0 <= x99 <= 1
 0 <= x100 <= 1
 0 <= x101 <= 1
 0 <= x102 <= 1
 0 <= x103 <= 1
 0 <= x104 <= 1
 0 <= x105 <= 1
 0 <= x106 <= 1
 0 <= y35_88 <= 1
 0 <= y32_54 <= 1
 0 <= y5_31 <= 1
 0 <= y54_58 <= 1
 0 <= y8_63 <= 1
 0 <= y27_68 <= 1
 0 <= y7_55 <= 1
 0 <= y5_74 <= 1
 0 <= y11_22 <= 1
 0 <= y55_78 <= 1
 0 <= y6_98 <= 1
 0 <= y89_106 <= 1
 0 <= y68_92 <= 1
 0 <= y16_106 <= 1
 0 <= y58_65 <= 1
 0 <= y34_85 <= 1
 0 <= y43_98 <= 1
 0 <= y53_62 <= 1
 0 <= y10_85 <= 1
 0 <= y48_77 <= 1
 0 <= y29_37 <= 1
 0 <= y27_93 <= 1
 0 <= y33_34 <= 1
 0 <= y31_51 <= 1
 0 <= y37_44 <= 1
 0 <= y63_83 <= 1
 0 <= y79_85 <= 1
 0 <= y74_89 <= 1
 0 <= y6_67 <= 1
 0 <= y90_95 <= 1
 0 <= y17_57 <= 1
 0 <= y88_105 <= 1
 0 <= y49_51 <= 1
 0 <= y35_96 <= 1
 0 <= y8_94 <= 1
 0 <= y20_47 <= 1
 0 <= y96_104 <= 1
 0 <= y59_92 <= 1
 0 <= y1_33 <= 1
 0 <= y6_14 <= 1
 0 <= y21_46 <= 1
 0 <= y2_38 <= 1
 0 <= y0_90 <= 1
 0 <= y100_102 <= 1
 0 <= y51_88 <= 1
 0 <= y54_64 <= 1
 0 <= y43_45 <= 1
 0 <= y64_86 <= 1
 0 <= y65_88 <= 1
 0 <= y76_78 <= 1
 0 <= y47_99 <= 1
 0 <= y0_5 <= 1
 0 <= y33_105 <= 1
 0 <= y12_29 <= 1
 0 <= y58_83 <= 1
 0 <= y67_100 <= 1
 0 <= y4_11 <= 1
 0 <= y26_56 <= 1
 0 <= y46_63 <= 1
 0 <= y48_101 <= 1
 0 <= y9_79 <= 1
 0 <= y59_85 <= 1
 0 <= y2_33 <= 1
 0 <= y93_96 <= 1
 0 <= y54_91 <= 1
 0 <= y10_48 <= 1
 0 <= y24_99 <= 1
 0 <= y55_85 <= 1
 0 <= y6_87 <= 1
 0 <= y13_63 <= 1
 0 <= y2_30 <= 1
 0 <= y0_50 <= 1
 0 <= y32_82 <= 1
 0 <= y46_70 <= 1
 0 <= y96_102 <= 1
 0 <= y39_106 <= 1
 0 <= y62_70 <= 1
 0 <= y21_26 <= 1
 0 <= y15_84 <= 1
 0 <= y73_80 <= 1
 0 <= y52_70 <= 1
 0 <= y17_44 <= 1
 0 <= y18_43 <= 1
 0 <= y45_59 <= 1
 0 <= y23_99 <= 1
 0 <= y78_96 <= 1
 0 <= y1_52 <= 1
 0 <= y87_101 <= 1
 0 <= y32_79 <= 1
 0 <= y68_100 <= 1
 0 <= y39_87 <= 1
 0 <= y63_93 <= 1
 0 <= y79_87 <= 1
 0 <= y25_101 <= 1
 0 <= y6_65 <= 1
 0 <= y53_87 <= 1
 0 <= y17_63 <= 1
 0 <= y47_100 <= 1
 0 <= y10_22 <= 1
 0 <= y17_81 <= 1
 0 <= y3_13 <= 1
 0 <= y18_79 <= 1
 0 <= y0_38 <= 1
 0 <= y68_99 <= 1
 0 <= y23_76 <= 1
 0 <= y82_85 <= 1
 0 <= y37_66 <= 1
 0 <= y24_82 <= 1
 0 <= y33_57 <= 1
 0 <= y39_76 <= 1
 0 <= y2_94 <= 1
 0 <= y49_80 <= 1
 0 <= y5_68 <= 1
 0 <= y58_81 <= 1
 0 <= y32_93 <= 1
 0 <= y14_93 <= 1
 0 <= y46_61 <= 1
 0 <= y35_87 <= 1
 0 <= y5_18 <= 1
 0 <= y29_53 <= 1
 0 <= y9_87 <= 1
 0 <= y16_22 <= 1
 0 <= y36_89 <= 1
 0 <= y2_89 <= 1
 0 <= y17_23 <= 1
 0 <= y13_35 <= 1
 0 <= y5_77 <= 1
 0 <= y6_85 <= 1
 0 <= y65_73 <= 1
 0 <= y76_93 <= 1
 0 <= y7_75 <= 1
 0 <= y0_30 <= 1
 0 <= y68_75 <= 1
 0 <= y57_106 <= 1
 0 <= y56_72 <= 1
 0 <= y37_106 <= 1
 0 <= y84_92 <= 1
 0 <= y22_61 <= 1
 0 <= y63_98 <= 1
 0 <= y62_68 <= 1
 0 <= y27_34 <= 1
 0 <= y86_94 <= 1
 0 <= y49_104 <= 1
 0 <= y31_40 <= 1
 0 <= y73_86 <= 1
 0 <= y37_47 <= 1
 0 <= y38_44 <= 1
 0 <= y67_78 <= 1
 0 <= y88_102 <= 1
 0 <= y66_94 <= 1
 0 <= y0_11 <= 1
 0 <= y13_97 <= 1
 0 <= y21_33 <= 1
 0 <= y11_87 <= 1
 0 <= y3_50 <= 1
 0 <= y27_81 <= 1
 0 <= y4_53 <= 1
 0 <= y51_87 <= 1
 0 <= y16_48 <= 1
 0 <= y38_57 <= 1
 0 <= y51_99 <= 1
 0 <= y28_103 <= 1
 0 <= y5_99 <= 1
 0 <= y12_98 <= 1
 0 <= y25_62 <= 1
 0 <= y17_105 <= 1
 0 <= y67_99 <= 1
 0 <= y61_96 <= 1
 0 <= y18_103 <= 1
 0 <= y59_80 <= 1
 0 <= y19_22 <= 1
 0 <= y35_80 <= 1
 0 <= y9_44 <= 1
 0 <= y29_84 <= 1
 0 <= y26_86 <= 1
 0 <= y40_52 <= 1
 0 <= y72_84 <= 1
 0 <= y54_68 <= 1
 0 <= y11_56 <= 1
 0 <= y29_78 <= 1
 0 <= y42_54 <= 1
 0 <= y1_98 <= 1
 0 <= y10_31 <= 1
 0 <= y47_85 <= 1
 0 <= y53_98 <= 1
 0 <= y84_105 <= 1
 0 <= y1_62 <= 1
 0 <= y23_71 <= 1
 0 <= y39_105 <= 1
 0 <= y4_29 <= 1
 0 <= y22_56 <= 1
 0 <= y3_32 <= 1
 0 <= y23_61 <= 1
 0 <= y25_83 <= 1
 0 <= y39_71 <= 1
 0 <= y36_91 <= 1
 0 <= y15_75 <= 1
 0 <= y17_21 <= 1
 0 <= y31_45 <= 1
 0 <= y5_58 <= 1
 0 <= y48_85 <= 1
 0 <= y40_59 <= 1
 0 <= y0_97 <= 1
 0 <= y7_52 <= 1
 0 <= y14_30 <= 1
 0 <= y89_95 <= 1
 0 <= y8_106 <= 1
 0 <= y21_104 <= 1
 0 <= y20_74 <= 1
 0 <= y55_79 <= 1
 0 <= y56_74 <= 1
 0 <= y0_54 <= 1
 0 <= y71_79 <= 1
 0 <= y18_89 <= 1
 0 <= y51_61 <= 1
 0 <= y8_86 <= 1
 0 <= y36_100 <= 1
 0 <= y43_99 <= 1
 0 <= y52_62 <= 1
 0 <= y81_87 <= 1
 0 <= y45_105 <= 1
 0 <= y99_100 <= 1
 0 <= y13_64 <= 1
 0 <= y33_35 <= 1
 0 <= y81_105 <= 1
 0 <= y36_40 <= 1
 0 <= y54_86 <= 1
 0 <= y30_68 <= 1
 0 <= y13_52 <= 1
 0 <= y76_86 <= 1
 0 <= y7_66 <= 1
 0 <= y24_58 <= 1
 0 <= y18_80 <= 1
 0 <= y25_59 <= 1
 0 <= y8_93 <= 1
 0 <= y35_71 <= 1
 0 <= y26_48 <= 1
 0 <= y61_101 <= 1
 0 <= y36_73 <= 1
 0 <= y7_12 <= 1
 0 <= y100_101 <= 1
 0 <= y9_41 <= 1
 0 <= y17_25 <= 1
 0 <= y50_73 <= 1
 0 <= y9_21 <= 1
 0 <= y18_56 <= 1
 0 <= y47_96 <= 1
 0 <= y7_81 <= 1
 0 <= y14_52 <= 1
 0 <= y46_84 <= 1
 0 <= y23_82 <= 1
 0 <= y58_82 <= 1
 0 <= y48_100 <= 1
 0 <= y70_75 <= 1
 0 <= y4_16 <= 1
 0 <= y34_64 <= 1
 0 <= y62_94 <= 1
 0 <= y39_72 <= 1
 0 <= y51_94 <= 1
 0 <= y11_36 <= 1
 0 <= y29_82 <= 1
 0 <= y9_52 <= 1
 0 <= y4_68 <= 1
 0 <= y41_55 <= 1
 0 <= y11_58 <= 1
 0 <= y29_76 <= 1
 0 <= y27_100 <= 1
 0 <= y39_55 <= 1
 0 <= y29_102 <= 1
 0 <= y7_78 <= 1
 0 <= y12_27 <= 1
 0 <= y69_70 <= 1
 0 <= y19_59 <= 1
 0 <= y34_97 <= 1
 0 <= y85_99 <= 1
 0 <= y57_79 <= 1
 0 <= y32_55 <= 1
 0 <= y29_49 <= 1
 0 <= y59_65 <= 1
 0 <= y21_27 <= 1
 0 <= y26_95 <= 1
 0 <= y72_93 <= 1
 0 <= y34_47 <= 1
 0 <= y78_87 <= 1
 0 <= y13_57 <= 1
 0 <= y44_87 <= 1
 0 <= y0_8 <= 1
 0 <= y39_96 <= 1
 0 <= y87_106 <= 1
 0 <= y84_88 <= 1
 0 <= y56_59 <= 1
 0 <= y62_72 <= 1
 0 <= y34_76 <= 1
 0 <= y59_60 <= 1
 0 <= y13_88 <= 1
 0 <= y78_94 <= 1
 0 <= y79_84 <= 1
 0 <= y75_92 <= 1
 0 <= y19_99 <= 1
 0 <= y20_83 <= 1
 0 <= y48_51 <= 1
 0 <= y45_53 <= 1
 0 <= y10_105 <= 1
 0 <= y21_89 <= 1
 0 <= y22_89 <= 1
 0 <= y78_106 <= 1
 0 <= y41_84 <= 1
 0 <= y1_14 <= 1
 0 <= y58_73 <= 1
 0 <= y70_86 <= 1
 0 <= y59_95 <= 1
 0 <= y45_96 <= 1
 0 <= y93_102 <= 1
 0 <= y49_101 <= 1
 0 <= y22_34 <= 1
 0 <= y62_85 <= 1
 0 <= y39_77 <= 1
 0 <= y7_36 <= 1
 0 <= y26_75 <= 1
 0 <= y40_49 <= 1
 0 <= y3_71 <= 1
 0 <= y76_79 <= 1
 0 <= y14_16 <= 1
 0 <= y45_46 <= 1
 0 <= y19_78 <= 1
 0 <= y20_64 <= 1
 0 <= y69_91 <= 1
 0 <= y22_74 <= 1
 0 <= y56_64 <= 1
 0 <= y26_57 <= 1
 0 <= y0_60 <= 1
 0 <= y23_74 <= 1
 0 <= y43_105 <= 1
 0 <= y32_50 <= 1
 0 <= y97_100 <= 1
 0 <= y98_106 <= 1
 0 <= y33_51 <= 1
 0 <= y76_104 <= 1
 0 <= y9_28 <= 1
 0 <= y14_27 <= 1
 0 <= y1_102 <= 1
 0 <= y43_59 <= 1
 0 <= y15_18 <= 1
 0 <= y30_94 <= 1
 0 <= y19_87 <= 1
 0 <= y58_91 <= 1
 0 <= y21_85 <= 1
 0 <= y0_51 <= 1
 0 <= y24_48 <= 1
 0 <= y10_79 <= 1
 0 <= y25_45 <= 1
 0 <= y0_41 <= 1
 0 <= y5_28 <= 1
 0 <= y4_39 <= 1
 0 <= y86_89 <= 1
 0 <= y40_63 <= 1
 0 <= y73_87 <= 1
 0 <= y4_77 <= 1
 0 <= y0_101 <= 1
 0 <= y53_77 <= 1
 0 <= y88_101 <= 1
 0 <= y69_77 <= 1
 0 <= y44_81 <= 1
 0 <= y7_95 <= 1
 0 <= y14_46 <= 1
 0 <= y90_103 <= 1
 0 <= y25_54 <= 1
 0 <= y63_104 <= 1
 0 <= y9_66 <= 1
 0 <= y21_34 <= 1
 0 <= y59_62 <= 1
 0 <= y77_104 <= 1
 0 <= y17_36 <= 1
 0 <= y9_14 <= 1
 0 <= y40_82 <= 1
 0 <= y47_103 <= 1
 0 <= y54_102 <= 1
 0 <= y1_106 <= 1
 0 <= y51_96 <= 1
 0 <= y31_96 <= 1
 0 <= y44_72 <= 1
 0 <= y83_95 <= 1
 0 <= y18_76 <= 1
 0 <= y69_80 <= 1
 0 <= y21_65 <= 1
 0 <= y5_14 <= 1
 0 <= y27_49 <= 1
 0 <= y6_13 <= 1
 0 <= y19_23 <= 1
 0 <= y11_77 <= 1
 0 <= y39_79 <= 1
 0 <= y8_54 <= 1
 0 <= y27_77 <= 1
 0 <= y16_54 <= 1
 0 <= y17_55 <= 1
 0 <= y41_50 <= 1
 0 <= y31_67 <= 1
 0 <= y77_85 <= 1
 0 <= y8_98 <= 1
 0 <= y56_92 <= 1
 0 <= y43_85 <= 1
 0 <= y20_49 <= 1
 0 <= y18_97 <= 1
 0 <= y27_54 <= 1
 0 <= y52_54 <= 1
 0 <= y61_84 <= 1
 0 <= y15_72 <= 1
 0 <= y24_102 <= 1
 0 <= y55_86 <= 1
 0 <= y6_74 <= 1
 0 <= y3_84 <= 1
 0 <= y12_57 <= 1
 0 <= y38_42 <= 1
 0 <= y52_96 <= 1
 0 <= y56_99 <= 1
 0 <= y76_94 <= 1
 0 <= y47_83 <= 1
 0 <= y1_30 <= 1
 0 <= y16_82 <= 1
 0 <= y37_105 <= 1
 0 <= y52_61 <= 1
 0 <= y14_79 <= 1
 0 <= y25_85 <= 1
 0 <= y21_39 <= 1
 0 <= y4_33 <= 1
 0 <= y36_65 <= 1
 0 <= y99_101 <= 1
 0 <= y0_65 <= 1
 0 <= y29_39 <= 1
 0 <= y10_38 <= 1
 0 <= y34_43 <= 1
 0 <= y17_33 <= 1
 0 <= y7_50 <= 1
 0 <= y4_85 <= 1
 0 <= y20_80 <= 1
 0 <= y7_67 <= 1
 0 <= y41_77 <= 1
 0 <= y42_69 <= 1
 0 <= y12_14 <= 1
 0 <= y88_103 <= 1
 0 <= y16_73 <= 1
 0 <= y50_58 <= 1
 0 <= y68_89 <= 1
 0 <= y80_83 <= 1
 0 <= y26_51 <= 1
 0 <= y62_76 <= 1
 0 <= y71_99 <= 1
 0 <= y93_105 <= 1
 0 <= y8_43 <= 1
 0 <= y12_88 <= 1
 0 <= y24_78 <= 1
 0 <= y33_37 <= 1
 0 <= y6_68 <= 1
 0 <= y40_78 <= 1
 0 <= y24_26 <= 1
 0 <= y55_66 <= 1
 0 <= y3_104 <= 1
 0 <= y56_87 <= 1
 0 <= y32_99 <= 1
 0 <= y83_97 <= 1
 0 <= y12_99 <= 1
 0 <= y57_93 <= 1
 0 <= y8_67 <= 1
 0 <= y4_9 <= 1
 0 <= y23_73 <= 1
 0 <= y12_87 <= 1
 0 <= y27_41 <= 1
 0 <= y6_37 <= 1
 0 <= y39_73 <= 1
 0 <= y82_106 <= 1
 0 <= y101_105 <= 1
 0 <= y2_93 <= 1
 0 <= y79_89 <= 1
 0 <= y10_50 <= 1
 0 <= y53_71 <= 1
 0 <= y85_100 <= 1
 0 <= y15_37 <= 1
 0 <= y21_50 <= 1
Binaries
 x0  x1  x2  x3  x4  x5  x6  x7  x8  x9  x10  x11  x12  x13  x14  x15  x16 
 x17  x18  x19  x20  x21  x22  x23  x24  x25  x26  x27  x28  x29  x30  x31 
 x32  x33  x34  x35  x36  x37  x38  x39  x40  x41  x42  x43  x44  x45  x46 
 x47  x48  x49  x50  x51  x52  x53  x54  x55  x56  x57  x58  x59  x60  x61 
 x62  x63  x64  x65  x66  x67  x68  x69  x70  x71  x72  x73  x74  x75  x76 
 x77  x78  x79  x80  x81  x82  x83  x84  x85  x86  x87  x88  x89  x90  x91 
 x92  x93  x94  x95  x96  x97  x98  x99  x100  x101  x102  x103  x104  x105 
 x106  y35_88  y32_54  y5_31  y54_58  y8_63  y27_68  y7_55  y5_74  y11_22 
 y55_78  y6_98  y89_106  y68_92  y16_106  y58_65  y34_85  y43_98  y53_62 
 y10_85  y48_77  y29_37  y27_93  y33_34  y31_51  y37_44  y63_83  y79_85 
 y74_89  y6_67  y90_95  y17_57  y88_105  y49_51  y35_96  y8_94  y20_47 
 y96_104  y59_92  y1_33  y6_14  y21_46  y2_38  y0_90  y100_102  y51_88  y54_64 
 y43_45  y64_86  y65_88  y76_78  y47_99  y0_5  y33_105  y12_29  y58_83 
 y67_100  y4_11  y26_56  y46_63  y48_101  y9_79  y59_85  y2_33  y93_96  y54_91 
 y10_48  y24_99  y55_85  y6_87  y13_63  y2_30  y0_50  y32_82  y46_70  y96_102 
 y39_106  y62_70  y21_26  y15_84  y73_80  y52_70  y17_44  y18_43  y45_59 
 y23_99  y78_96  y1_52  y87_101  y32_79  y68_100  y39_87  y63_93  y79_87 
 y25_101  y6_65  y53_87  y17_63  y47_100  y10_22  y17_81  y3_13  y18_79  y0_38 
 y68_99  y23_76  y82_85  y37_66  y24_82  y33_57  y39_76  y2_94  y49_80  y5_68 
 y58_81  y32_93  y14_93  y46_61  y35_87  y5_18  y29_53  y9_87  y16_22  y36_89 
 y2_89  y17_23  y13_35  y5_77  y6_85  y65_73  y76_93  y7_75  y0_30  y68_75 
 y57_106  y56_72  y37_106  y84_92  y22_61  y63_98  y62_68  y27_34  y86_94 
 y49_104  y31_40  y73_86  y37_47  y38_44  y67_78  y88_102  y66_94  y0_11 
 y13_97  y21_33  y11_87  y3_50  y27_81  y4_53  y51_87  y16_48  y38_57  y51_99 
 y28_103  y5_99  y12_98  y25_62  y17_105  y67_99  y61_96  y18_103  y59_80 
 y19_22  y35_80  y9_44  y29_84  y26_86  y40_52  y72_84  y54_68  y11_56  y29_78 
 y42_54  y1_98  y10_31  y47_85  y53_98  y84_105  y1_62  y23_71  y39_105  y4_29 
 y22_56  y3_32  y23_61  y25_83  y39_71  y36_91  y15_75  y17_21  y31_45  y5_58 
 y48_85  y40_59  y0_97  y7_52  y14_30  y89_95  y8_106  y21_104  y20_74  y55_79 
 y56_74  y0_54  y71_79  y18_89  y51_61  y8_86  y36_100  y43_99  y52_62  y81_87 
 y45_105  y99_100  y13_64  y33_35  y81_105  y36_40  y54_86  y30_68  y13_52 
 y76_86  y7_66  y24_58  y18_80  y25_59  y8_93  y35_71  y26_48  y61_101  y36_73 
 y7_12  y100_101  y9_41  y17_25  y50_73  y9_21  y18_56  y47_96  y7_81  y14_52 
 y46_84  y23_82  y58_82  y48_100  y70_75  y4_16  y34_64  y62_94  y39_72 
 y51_94  y11_36  y29_82  y9_52  y4_68  y41_55  y11_58  y29_76  y27_100  y39_55 
 y29_102  y7_78  y12_27  y69_70  y19_59  y34_97  y85_99  y57_79  y32_55 
 y29_49  y59_65  y21_27  y26_95  y72_93  y34_47  y78_87  y13_57  y44_87  y0_8 
 y39_96  y87_106  y84_88  y56_59  y62_72  y34_76  y59_60  y13_88  y78_94 
 y79_84  y75_92  y19_99  y20_83  y48_51  y45_53  y10_105  y21_89  y22_89 
 y78_106  y41_84  y1_14  y58_73  y70_86  y59_95  y45_96  y93_102  y49_101 
 y22_34  y62_85  y39_77  y7_36  y26_75  y40_49  y3_71  y76_79  y14_16  y45_46 
 y19_78  y20_64  y69_91  y22_74  y56_64  y26_57  y0_60  y23_74  y43_105 
 y32_50  y97_100  y98_106  y33_51  y76_104  y9_28  y14_27  y1_102  y43_59 
 y15_18  y30_94  y19_87  y58_91  y21_85  y0_51  y24_48  y10_79  y25_45  y0_41 
 y5_28  y4_39  y86_89  y40_63  y73_87  y4_77  y0_101  y53_77  y88_101  y69_77 
 y44_81  y7_95  y14_46  y90_103  y25_54  y63_104  y9_66  y21_34  y59_62 
 y77_104  y17_36  y9_14  y40_82  y47_103  y54_102  y1_106  y51_96  y31_96 
 y44_72  y83_95  y18_76  y69_80  y21_65  y5_14  y27_49  y6_13  y19_23  y11_77 
 y39_79  y8_54  y27_77  y16_54  y17_55  y41_50  y31_67  y77_85  y8_98  y56_92 
 y43_85  y20_49  y18_97  y27_54  y52_54  y61_84  y15_72  y24_102  y55_86 
 y6_74  y3_84  y12_57  y38_42  y52_96  y56_99  y76_94  y47_83  y1_30  y16_82 
 y37_105  y52_61  y14_79  y25_85  y21_39  y4_33  y36_65  y99_101  y0_65 
 y29_39  y10_38  y34_43  y17_33  y7_50  y4_85  y20_80  y7_67  y41_77  y42_69 
 y12_14  y88_103  y16_73  y50_58  y68_89  y80_83  y26_51  y62_76  y71_99 
 y93_105  y8_43  y12_88  y24_78  y33_37  y6_68  y40_78  y24_26  y55_66  y3_104 
 y56_87  y32_99  y83_97  y12_99  y57_93  y8_67  y4_9  y23_73  y12_87  y27_41 
 y6_37  y39_73  y82_106  y101_105  y2_93  y79_89  y10_50  y53_71  y85_100 
 y15_37  y21_50 
End
